! B3LYP 6-31G
!TightSCF
%scf
 ConvForced true
 convergence tight
 MaxIter 500
end
 
%tddft 
 nroots 1
end

# 	11974
* xyz 0 1
		C   -1.176957  -0.286761   0.006339
		O   -1.868016  -0.810434  -0.821024
		C    0.001243   0.455603  -0.307476
		C    1.247396  -0.003388   0.175931
		H   -1.392972  -0.395871   0.924593
		H   -0.044220   1.286884  -0.865753
		H    1.229996  -0.868221   0.740027
		H    2.061126   0.616163   0.131415
*
