! B3LYP 6-31G
!TightSCF
%scf
 ConvForced true
 convergence tight
 MaxIter 500
end
 
%tddft 
 nroots 1
end

# 	1637
* xyz 0 1
		C   -1.136716  -0.406298  -0.028259
		O   -2.076278  -0.563775  -0.879523
		C    0.021035   0.410412  -0.331609
		C    1.178383   0.102835   0.246857
		H   -1.415370  -0.875227   1.019693
		H   -0.025806   1.340073  -0.996192
		H    1.367219  -0.710330   0.942794
		H    2.070183   0.683786   0.097500
*
