! B3LYP 6-31G
!TightSCF
%scf
 ConvForced true
 convergence tight
 MaxIter 500
end
 
%tddft 
 nroots 1
end

# 	20791
* xyz 0 1
		C   -0.594101  -0.400350  -0.034554
		O   -0.596659  -1.645969   0.017769
		C    0.606869   0.388546   0.028520
		C    1.884032  -0.076821  -0.022966
		H   -1.544118  -0.097841  -0.021473
		H    0.512906   1.373598   0.032478
		H    2.041485  -1.342333  -0.022581
		H    2.812633   0.474455   0.081993
*
