! B3LYP 6-31G
!TightSCF
%scf
 ConvForced true
 convergence tight
 MaxIter 500
end
 
%tddft 
 nroots 1
end

# 	19380
* xyz 0 1
		C   -1.187674  -0.345484   0.039279
		O   -1.300766  -1.675943  -0.058190
		C    0.016023   0.484994  -0.031025
		C    1.252491   0.025705  -0.040290
		H   -2.238369   0.324910   0.173046
		H   -0.247662   1.465630  -0.210340
		H    1.462335  -0.872641   0.261987
		H    2.247980   0.585453  -0.080481
*
