! B3LYP 6-31G
!TightSCF
%scf
 ConvForced true
 convergence tight
 MaxIter 500
end
 
%tddft 
 nroots 1
end

# 	17855
* xyz 0 1
		C   -1.209665  -0.318359  -0.024630
		O   -2.092628  -0.548773  -0.833082
		C    0.089897   0.489377  -0.292371
		C    1.234614   0.058155   0.189304
		H   -1.437426  -0.867997   0.896233
		H    0.080757   1.185608  -0.956365
		H    1.256931  -0.577830   0.821015
		H    2.095434   0.516827   0.137458
*
