! B3LYP 6-31G
!TightSCF
%scf
 ConvForced true
 convergence tight
 MaxIter 500
end
 
%tddft 
 nroots 1
end

# 	30889
* xyz 0 1
		C   -0.581065  -0.399786  -0.014530
		O   -0.541791  -1.635247   0.033670
		C    0.639004   0.424854   0.013021
		C    1.801310  -0.158925  -0.032931
		H   -1.624319   0.245962  -0.388670
		H    0.324813   1.466437   0.304335
		H    1.914459  -1.293452  -0.169703
		H    2.768755   0.420121   0.160388
*
