! B3LYP 6-31G
!TightSCF
%scf
 ConvForced true
 convergence tight
 MaxIter 500
end
 
%tddft 
 nroots 1
end

# 	23384
* xyz 0 1
		C   -0.584710  -0.438699   0.036686
		O   -0.580007  -1.656018  -0.015040
		C    0.633700   0.452501  -0.068308
		C    1.851284  -0.150393   0.042956
		H   -1.549445   0.125341   0.190213
		H    0.647422   1.511969  -0.039719
		H    1.840745  -1.069594  -0.169622
		H    2.611328   0.577928   0.127109
*
