! B3LYP 6-31G
!TightSCF
%scf
 ConvForced true
 convergence tight
 MaxIter 500
end
 
%tddft 
 nroots 1
end

# 	29309
* xyz 0 1
		C   -0.602890  -0.372914  -0.055413
		O   -0.542342  -1.656515   0.044374
		C    0.603770   0.417901   0.027005
		C    1.851346  -0.131504  -0.013790
		H   -1.583787   0.111991  -0.218256
		H    0.446314   1.505661   0.232405
		H    1.934321  -1.467063  -0.304315
		H    2.702122   0.441785   0.113221
*
