! B3LYP 6-31G
!TightSCF
%scf
 ConvForced true
 convergence tight
 MaxIter 500
end
 
%tddft 
 nroots 1
end

# 	27796
* xyz 0 1
		C   -0.570150  -0.430654   0.043142
		O   -0.571269  -1.610817  -0.039714
		C    0.626032   0.398926  -0.036507
		C    1.819101  -0.133199   0.026480
		H   -1.639482   0.000410   0.226714
		H    0.688255   1.478727  -0.098535
		H    1.903355  -1.249782   0.327541
		H    2.761431   0.532297  -0.246265
*
