! B3LYP 6-31G
!TightSCF
%scf
 ConvForced true
 convergence tight
 MaxIter 500
end
 
%tddft 
 nroots 1
end

# 	26073
* xyz 0 1
		C   -0.562155  -0.383458  -0.078701
		O   -0.633275  -1.720258   0.036948
		C    0.670058   0.424178   0.052965
		C    1.872119  -0.072917  -0.021671
		H   -1.341491   0.101032  -0.121283
		H    0.290507   1.374144   0.258046
		H    1.839065  -1.084859   0.035781
		H    2.621555   0.529758  -0.191113
*
