! B3LYP 6-31G
!TightSCF
%scf
 ConvForced true
 convergence tight
 MaxIter 500
end
 
%tddft 
 nroots 1
end

# 	16191
* xyz 0 1
		C   -1.235209  -0.280368   0.018186
		O   -1.874961  -0.804254  -0.870402
		C   -0.009974   0.500746  -0.274503
		C    1.185700   0.054986   0.170645
		H   -1.426239  -0.728637   1.088218
		H    0.059820   1.305011  -1.138324
		H    1.162819  -0.697855   0.930004
		H    2.098528   0.601208   0.042880
*
