! B3LYP 6-31G
!TightSCF
%scf
 ConvForced true
 convergence tight
 MaxIter 500
end
 
%tddft 
 nroots 1
end

# 	3198
* xyz 0 1
		C   -1.184396  -0.370249  -0.135136
		O   -2.192701  -0.404414  -0.735924
		C    0.020463   0.426298  -0.324101
		C    1.201513   0.233344   0.339006
		H   -1.041430  -0.981136   0.917552
		H   -0.058074   0.956858  -1.188880
		H    1.288547  -0.636619   1.092134
		H    1.963706   0.765345   0.017357
*
