! B3LYP 6-31G
!TightSCF
%scf
 ConvForced true
 convergence tight
 MaxIter 500
end
 
%tddft 
 nroots 1
end

# 	11871
* xyz 0 1
		C   -1.228337  -0.335234  -0.026354
		O   -1.743656  -0.948918  -0.875029
		C   -0.060362   0.517438  -0.251339
		C    1.177402   0.061514   0.193722
		H   -1.363657  -0.430393   0.929322
		H   -0.138561   1.576073  -0.750038
		H    1.188826  -1.016509   0.709197
		H    2.192390   0.585532   0.029169
*
