! B3LYP 6-31G
!TightSCF
%scf
 ConvForced true
 convergence tight
 MaxIter 500
end
 
%tddft 
 nroots 1
end

# 	32356
* xyz 0 1
		C   -0.613412  -0.432853   0.038521
		O   -0.575615  -1.641696  -0.006239
		C    0.651172   0.434478  -0.072552
		C    1.823959  -0.125331   0.023711
		H   -1.534215  -0.028679   0.071839
		H    0.529053   1.507291   0.096357
		H    2.038903  -1.148984  -0.155858
		H    2.887288   0.448633   0.226815
*
