! B3LYP 6-31G
!TightSCF
%scf
 ConvForced true
 convergence tight
 MaxIter 500
end
 
%tddft 
 nroots 1
end

# 	3820
* xyz 0 1
		C   -1.155556  -0.279072   0.066217
		O   -1.132402  -1.389587   0.057271
		C   -0.040871   0.591516   0.095901
		C    1.232942  -0.050585   0.065809
		H   -2.183157   0.128873  -0.130814
		H   -0.372210   1.696851  -0.042568
		H    1.274617  -1.129731   0.126528
		H    2.331856   0.544651  -0.210030
*
