! B3LYP 6-31G
!TightSCF
%scf
 ConvForced true
 convergence tight
 MaxIter 500
end
 
%tddft 
 nroots 1
end

# 	8988
* xyz 0 1
		C   -1.240606  -0.339835  -0.035455
		O   -1.358995  -1.361642  -0.664967
		C   -0.009744   0.483189  -0.254811
		C    1.236193   0.037948   0.168725
		H   -1.993788   0.030202   0.693008
		H   -0.197654   1.490899  -0.456619
		H    1.515516  -1.050950   0.452899
		H    2.025952   0.649384   0.094538
*
