! B3LYP 6-31G
!TightSCF
%scf
 ConvForced true
 convergence tight
 MaxIter 500
end
 
%tddft 
 nroots 1
end

# 	30869
* xyz 0 1
		C   -0.616619  -0.449235   0.016782
		O   -0.558010  -1.639603  -0.019663
		C    0.635572   0.455017  -0.005925
		C    1.832887  -0.149302   0.018337
		H   -1.537654   0.171626   0.136366
		H    0.477007   1.605468  -0.156962
		H    2.050692  -1.160689   0.081298
		H    2.764522   0.398986  -0.112809
*
