! B3LYP 6-31G
!TightSCF
%scf
 ConvForced true
 convergence tight
 MaxIter 500
end
 
%tddft 
 nroots 1
end

# 	4466
* xyz 0 1
		C   -1.187678  -0.330546  -0.017040
		O   -1.407408  -1.407537  -0.588864
		C    0.025955   0.479499  -0.092100
		C    1.210023   0.040002   0.154453
		H   -1.875845   0.038711   0.796879
		H   -0.068040   1.463460  -0.591306
		H    1.240757  -1.024791   0.439245
		H    2.061634   0.651350  -0.068872
*
