! B3LYP 6-31G
!TightSCF
%scf
 ConvForced true
 convergence tight
 MaxIter 500
end
 
%tddft 
 nroots 1
end

# 	9334
* xyz 0 1
		C   -1.254339  -0.374791   0.047468
		O   -1.905904  -0.763989   0.929634
		C    0.068893   0.441302   0.267346
		C    1.144411   0.053786  -0.232537
		H   -1.544290  -0.451709  -1.006941
		H    0.048159   1.329945   0.877767
		H    1.249694  -0.766730  -0.806571
		H    2.181190   0.590254  -0.120586
*
