! B3LYP 6-31G
!TightSCF
%scf
 ConvForced true
 convergence tight
 MaxIter 500
end
 
%tddft 
 nroots 1
end

# 	11312
* xyz 0 1
		C   -1.210101  -0.342525  -0.009911
		O   -1.833871  -1.017014  -0.845130
		C    0.023851   0.329637  -0.276558
		C    1.178964   0.009578   0.154461
		H   -1.634055  -0.232198   0.957752
		H   -0.097855   1.350899  -0.775841
		H    1.409652  -0.689676   0.793682
		H    2.187743   0.629865   0.007802
*
