! B3LYP 6-31G
!TightSCF
%scf
 ConvForced true
 convergence tight
 MaxIter 500
end
 
%tddft 
 nroots 1
end

# 	32458
* xyz 0 1
		C   -0.624983  -0.448013  -0.037178
		O   -0.561022  -1.632767   0.016994
		C    0.676013   0.425706   0.056865
		C    1.827142  -0.130908  -0.001316
		H   -1.672240   0.139425  -0.246688
		H    0.464123   1.461317   0.095100
		H    1.819286  -1.087837  -0.003953
		H    2.853950   0.473112  -0.343315
*
