! B3LYP 6-31G
!TightSCF
%scf
 ConvForced true
 convergence tight
 MaxIter 500
end
 
%tddft 
 nroots 1
end

# 	10669
* xyz 0 1
		C   -1.234990  -0.318070  -0.012985
		O   -1.586954  -1.145007   0.737328
		C    0.030391   0.525968   0.159703
		C    1.196496   0.070650  -0.157813
		H   -1.610118  -0.254343  -1.068506
		H   -0.200979   1.481045   0.699851
		H    1.309233  -1.013097  -0.410723
		H    2.072909   0.655775   0.014836
*
