! B3LYP 6-31G
!TightSCF
%scf
 ConvForced true
 convergence tight
 MaxIter 500
end
 
%tddft 
 nroots 1
end

# 	29640
* xyz 0 1
		C   -0.601431  -0.379166  -0.047850
		O   -0.596158  -1.686029   0.029115
		C    0.645639   0.400738   0.044705
		C    1.882345  -0.107535  -0.018883
		H   -1.653826   0.055589  -0.186963
		H    0.365522   1.563045   0.140892
		H    2.158822  -1.107834  -0.085416
		H    2.601181   0.557719  -0.060715
*
