! B3LYP 6-31G
!TightSCF
%scf
 ConvForced true
 convergence tight
 MaxIter 500
end
 
%tddft 
 nroots 1
end

# 	5088
* xyz 0 1
		C   -1.232673  -0.324961  -0.032466
		O   -1.460366  -1.276708   0.632473
		C    0.038542   0.484014   0.164271
		C    1.171873   0.035510  -0.165282
		H   -1.864092   0.105416  -0.761356
		H   -0.048018   1.382096   0.699350
		H    1.195696  -0.898037  -0.549744
		H    2.255915   0.476992  -0.017454
*
