! B3LYP 6-31G
!TightSCF
%scf
 ConvForced true
 convergence tight
 MaxIter 500
end
 
%tddft 
 nroots 1
end

# 	18793
* xyz 0 1
		C   -1.114375  -0.325476   0.021557
		O   -1.689299  -1.039665   0.864847
		C    0.009768   0.454320   0.274864
		C    1.243459   0.088715  -0.209688
		H   -1.624478  -0.333366  -1.040336
		H   -0.204844   1.415812   0.852148
		H    1.282489  -0.950389  -0.718703
		H    2.104481   0.659806  -0.077383
*
