! B3LYP cc-pVDZ
!TightSCF
%scf
 ConvForced true
 convergence tight
 MaxIter 500
end
 
%tddft 
 nroots 1
end

# 	29101
* xyz 0 1
		C   -0.544217  -0.444204   0.025880
		O   -0.598178  -1.656839  -0.011102
		C    0.658145   0.439294  -0.033879
		C    1.808370  -0.120042   0.004492
		H   -1.503238   0.180813   0.098675
		H    0.604123   1.497808  -0.027192
		H    1.836840  -1.265518   0.012769
		H    2.664938   0.612979   0.138064
*
