! B3LYP cc-pVDZ
!TightSCF
%scf
 ConvForced true
 convergence tight
 MaxIter 500
end
 
%tddft 
 nroots 1
end

# 	9408
* xyz 0 1
		C   -1.242390  -0.373516  -0.079489
		O   -1.461208  -1.391449  -0.494866
		C    0.036593   0.431978  -0.160647
		C    1.225143  -0.017172   0.160441
		H   -2.111292   0.218949   0.540325
		H    0.002108   1.581473  -0.360268
		H    1.408640  -1.058368   0.349561
		H    2.122891   0.565604   0.075001
*
