! B3LYP cc-pVDZ
!TightSCF
%scf
 ConvForced true
 convergence tight
 MaxIter 500
end
 
%tddft 
 nroots 1
end

# 	31747
* xyz 0 1
		C   -0.544278  -0.388524  -0.010853
		O   -0.627288  -1.688443   0.008152
		C    0.614990   0.373102   0.022175
		C    1.860871  -0.088745  -0.028823
		H   -1.453664   0.179834  -0.054072
		H    0.657654   1.478261  -0.013737
		H    2.101403  -1.020483   0.025669
		H    2.635180   0.666403   0.128201
*
