! B3LYP cc-pVDZ
!TightSCF
%scf
 ConvForced true
 convergence tight
 MaxIter 500
end
 
%tddft 
 nroots 1
end

# 	32762
* xyz 0 1
		C   -0.562972  -0.397737   0.006165
		O   -0.535165  -1.627789  -0.000134
		C    0.645850   0.433057  -0.024550
		C    1.765435  -0.184767   0.030855
		H   -1.582493   0.203193   0.049954
		H    0.515221   1.453643  -0.011428
		H    1.801385  -1.177861  -0.190976
		H    2.694330   0.404329   0.007889
*
