! B3LYP cc-pVDZ
!TightSCF
%scf
 ConvForced true
 convergence tight
 MaxIter 500
end
 
%tddft 
 nroots 1
end

# 	15874
* xyz 0 1
		C   -1.292021  -0.368729   0.061694
		O   -1.890572  -0.823073   0.888402
		C   -0.082767   0.480882   0.207219
		C    1.203738   0.055295  -0.149153
		H   -1.251186  -0.606708  -0.833527
		H   -0.107935   1.409278   0.804868
		H    1.316860  -0.926003  -0.860810
		H    2.037849   0.806573  -0.079147
*
