! B3LYP cc-pVDZ
!TightSCF
%scf
 ConvForced true
 convergence tight
 MaxIter 500
end
 
%tddft 
 nroots 1
end

# 	30851
* xyz 0 1
		C   -0.599030  -0.438983  -0.081354
		O   -0.550313  -1.602215   0.040180
		C    0.606491   0.423001   0.017680
		C    1.851681  -0.169311   0.015773
		H   -1.531633   0.107144   0.068083
		H    0.553208   1.559663   0.180800
		H    1.972447  -1.228480  -0.271801
		H    2.552562   0.462661  -0.034268
*
