! B3LYP cc-pVDZ
!TightSCF
%scf
 ConvForced true
 convergence tight
 MaxIter 500
end
 
%tddft 
 nroots 1
end

# 	17916
* xyz 0 1
		C   -1.231126  -0.308058  -0.100559
		O   -1.997941  -0.457838  -0.934998
		C    0.022945   0.497365  -0.260121
		C    1.145939   0.156068   0.364990
		H   -1.411573  -0.881523   1.005472
		H    0.065944   1.194141  -1.008584
		H    1.158898  -0.769512   0.940092
		H    2.246107   0.588392   0.033254
*
