! B3LYP cc-pVDZ
!TightSCF
%scf
 ConvForced true
 convergence tight
 MaxIter 500
end
 
%tddft 
 nroots 1
end

# 	16501
* xyz 0 1
		C   -1.219024  -0.380201  -0.069221
		O   -1.235023  -1.573619   0.109745
		C    0.044465   0.501664  -0.013778
		C    1.213088  -0.026011  -0.049556
		H   -2.175476   0.381513  -0.281874
		H   -0.166182   1.393944   0.447415
		H    1.403611  -0.921415  -0.323712
		H    2.109766   0.602581   0.070221
*
