! B3LYP cc-pVDZ
!TightSCF
%scf
 ConvForced true
 convergence tight
 MaxIter 500
end
 
%tddft 
 nroots 1
end

# 	19538
* xyz 0 1
		C   -1.258517  -0.334048   0.045137
		O   -2.216752  -0.235388   0.708140
		C    0.059129   0.423552   0.317031
		C    1.207696   0.046926  -0.277101
		H   -1.100242  -0.937537  -0.755872
		H   -0.046109   1.063682   1.241924
		H    1.228616  -0.761997  -1.035099
		H    2.139427   0.684626  -0.273878
*
