! B3LYP cc-pVDZ
!TightSCF
%scf
 ConvForced true
 convergence tight
 MaxIter 500
end
 
%tddft 
 nroots 1
end

# 	25979
* xyz 0 1
		C   -0.530735  -0.476357  -0.010308
		O   -0.656600  -1.702467  -0.001488
		C    0.651682   0.499991  -0.038285
		C    1.850934  -0.070176   0.009514
		H   -1.489142  -0.077688   0.268760
		H    0.590300   1.516292   0.069747
		H    1.967268  -1.147324   0.063295
		H    2.874921   0.484321   0.090430
*
