! B3LYP cc-pVDZ
!TightSCF
%scf
 ConvForced true
 convergence tight
 MaxIter 500
end
 
%tddft 
 nroots 1
end

# 	22929
* xyz 0 1
		C   -0.560432  -0.407121  -0.050491
		O   -0.605759  -1.625217   0.021255
		C    0.639266   0.372377   0.058645
		C    1.833346  -0.112365  -0.028584
		H   -1.455158  -0.030379  -0.026410
		H    0.474553   1.422153  -0.070874
		H    2.087242  -1.246423  -0.047981
		H    2.705045   0.653180   0.052816
*
