! B3LYP 6-31G
!TightSCF
%scf
 ConvForced true
 convergence tight
 MaxIter 500
end
 
%tddft 
 nroots 1
end

# 	12501
* xyz 0 1
		C   -1.172415  -0.338319   0.047847
		O   -1.236300  -1.524825  -0.213016
		C   -0.016287   0.556053  -0.111438
		C    1.301419  -0.054529   0.005074
		H   -2.165815   0.270789   0.302591
		H   -0.095946   1.604008  -0.394105
		H    1.319448  -1.134326   0.199857
		H    2.067328   0.604180   0.193075
*
