! B3LYP 6-31G
!TightSCF
%scf
 ConvForced true
 convergence tight
 MaxIter 500
end
 
%tddft 
 nroots 1
end

# 	9084
* xyz 0 1
		C   -1.159709  -0.249216  -0.016385
		O   -1.303792  -1.382393   0.541011
		C    0.014426   0.453274   0.133337
		C    1.208735  -0.033172  -0.131038
		H   -1.980325   0.056411  -0.682605
		H   -0.127298   1.565100   0.455308
		H    1.263700  -1.091090  -0.278881
		H    2.061137   0.624462  -0.061241
*
