! B3LYP 6-31G
!TightSCF
%scf
 ConvForced true
 convergence tight
 MaxIter 500
end
 
%tddft 
 nroots 1
end

# 	10820
* xyz 0 1
		C   -1.138175  -0.322012   0.060292
		O   -1.146736  -1.487463   0.023471
		C    0.034279   0.542141  -0.000814
		C    1.204998  -0.058628   0.051152
		H   -2.241204   0.243071   0.008003
		H   -0.187807   1.555799  -0.111771
		H    1.297241  -1.113307  -0.012949
		H    2.177845   0.546375   0.006518
*
