! B3LYP 6-31G
!TightSCF
%scf
 ConvForced true
 convergence tight
 MaxIter 500
end
 
%tddft 
 nroots 1
end

# 	22990
* xyz 0 1
		C   -0.529504  -0.455807   0.032820
		O   -0.629356  -1.643629  -0.018425
		C    0.636614   0.427814  -0.024381
		C    1.830358  -0.118497   0.000648
		H   -1.425853   0.101740   0.103456
		H    0.467002   1.454798  -0.102987
		H    2.063033  -1.056339   0.080745
		H    2.778288   0.583695   0.100840
*
