! B3LYP 6-31G
!TightSCF
%scf
 ConvForced true
 convergence tight
 MaxIter 500
end
 
%tddft 
 nroots 1
end

# 	7405
* xyz 0 1
		C   -1.222301  -0.401836   0.015792
		O   -1.385460  -1.462320  -0.447822
		C    0.085273   0.392987  -0.143108
		C    1.300361   0.056833   0.099029
		H   -2.049994   0.234013   0.692404
		H   -0.147199   1.403308  -0.650466
		H    1.388828  -0.892891   0.537486
		H    2.074969   0.710848  -0.051571
*
