! B3LYP 6-31G
!TightSCF
%scf
 ConvForced true
 convergence tight
 MaxIter 500
end
 
%tddft 
 nroots 1
end

# 	29451
* xyz 0 1
		C   -0.649765  -0.464134  -0.031264
		O   -0.581601  -1.609017   0.008834
		C    0.630686   0.377815   0.016298
		C    1.906985  -0.106520  -0.020041
		H   -1.636754   0.198833   0.083333
		H    0.439389   1.462562   0.055561
		H    2.178768  -1.143123   0.130781
		H    2.688772   0.601977   0.007182
*
