! B3LYP 6-31G
!TightSCF
%scf
 ConvForced true
 convergence tight
 MaxIter 500
end
 
%tddft 
 nroots 1
end

# 	28609
* xyz 0 1
		C   -0.622499  -0.453876   0.014354
		O   -0.582802  -1.614392  -0.013143
		C    0.620408   0.413278  -0.017292
		C    1.898650  -0.122271  -0.004822
		H   -1.632280   0.066919   0.153144
		H    0.502140   1.319162  -0.066152
		H    2.006008  -1.093115   0.131035
		H    2.696676   0.508838   0.080096
*
