! B3LYP 6-31G
!TightSCF
%scf
 ConvForced true
 convergence tight
 MaxIter 500
end
 
%tddft 
 nroots 1
end

# 	17671
* xyz 0 1
		C   -1.210140  -0.348672  -0.008800
		O   -1.944752  -0.802238  -0.787084
		C    0.046345   0.414349  -0.395024
		C    1.205088   0.060553   0.179914
		H   -1.324902  -0.552184   1.108680
		H   -0.142428   1.248350  -1.009708
		H    1.390160  -0.659638   0.901137
		H    1.988710   0.618512   0.006580
*
